(set-logic ALL)
(declare-fun var0 () String)
(assert (str.in_re var0 (re.++ (re.* (re.+ (str.to_re "00"))) (re.++ (re.+ (re.* (str.to_re "111"))) (re.++ (re.union (re.union (str.to_re "2") (str.to_re "3")) (re.union (str.to_re "44") (str.to_re "55"))) (re.++ (re.union (re.* (str.to_re "666")) (re.* (str.to_re "7"))) (re.++ (re.* (re.* (str.to_re "8"))) (re.++ (re.union (re.+ (str.to_re "9")) (re.+ (str.to_re "a"))) (re.++ (re.union (re.* (str.to_re "bb")) (re.* (str.to_re "c"))) (re.++ (re.union (re.* (str.to_re "ddd")) (re.* (str.to_re "eee"))) (re.++ (re.union (re.union (str.to_re "f") (str.to_re "ggg")) (re.union (str.to_re "hh") (str.to_re "ii"))) (re.+ (re.* (str.to_re "jj"))))))))))))))
(assert (<= 201 (str.len var0)))
(check-sat)